SDVRP instances/custom_instances/p01_28_split0.vrp
NAME:p01_28_split
BEST_KNOWN: 0
COMMENT: 0
DIMENSION: 186
CAPACITY: 160
EDGE_WEIGHT_FORMAT: FUNCTION
EDGE_WEIGHT_TYPE: EXACT_2D
NODE_COORD_SECTION
1 0.00000 0.00000
2 -29 -44
3 -6 -37
4 -6 -37
5 -6 -37
6 -6 -37
7 -6 -37
8 -6 -37
9 -19 16
10 -19 16
11 -19 16
12 -19 16
13 30 27
14 30 27
15 -12 -47
16 -12 -47
17 -12 -47
18 -12 -47
19 -12 -47
20 21 -5
21 21 -5
22 25 -3
23 25 -3
24 25 -3
25 25 -3
26 -2 -12
27 -2 -12
28 -2 -12
29 -2 -12
30 43 3
31 43 3
32 43 3
33 43 3
34 39 -13
35 39 -13
36 39 -13
37 39 -13
38 39 -13
39 39 -13
40 39 -13
41 -49 38
42 -49 38
43 -27 -43
44 -27 -43
45 -27 -43
46 -27 -43
47 -37 41
48 -37 41
49 -37 41
50 28 22
51 28 22
52 28 22
53 -29 26
54 -29 26
55 -29 26
56 46 -50
57 46 -50
58 46 -50
59 -41 -14
60 -41 -14
61 -41 -14
62 -41 -14
63 -41 -14
64 18 -35
65 18 -35
66 18 -35
67 -12 -5
68 -12 -5
69 -12 -5
70 -12 -5
71 -12 -5
72 -12 -5
73 -15 33
74 -15 33
75 -15 33
76 -10 -8
77 -10 -8
78 -10 -8
79 -10 -8
80 -10 -8
81 2 42
82 2 42
83 2 42
84 2 42
85 2 42
86 7 22
87 7 22
88 7 22
89 -45 -7
90 -45 -7
91 -45 -7
92 -45 -7
93 21 -23
94 21 -23
95 21 -23
96 21 -23
97 -12 -33
98 -12 -33
99 -12 -33
100 -12 -33
101 -24 42
102 -24 42
103 -24 42
104 15 40
105 15 40
106 15 40
107 -37 38
108 -37 38
109 -37 38
110 49 47
111 -15 -39
112 -15 -39
113 -15 -39
114 -15 -39
115 -25 50
116 -25 50
117 -25 50
118 -25 50
119 50 43
120 50 43
121 50 43
122 50 43
123 12 -46
124 12 -46
125 12 -46
126 20 24
127 20 24
128 20 24
129 20 24
130 20 24
131 15 -50
132 15 -50
133 15 -50
134 15 -50
135 -1 -48
136 -1 -48
137 -1 -48
138 -1 -48
139 -1 -48
140 -34 -28
141 -34 -28
142 11 34
143 11 34
144 11 34
145 -3 -41
146 -3 -41
147 -3 -41
148 40 6
149 40 6
150 40 6
151 40 6
152 40 6
153 -46 45
154 -46 45
155 -46 45
156 -40 -46
157 -40 -46
158 1 1
159 1 1
160 1 1
161 1 1
162 1 1
163 1 1
164 16 10
165 16 10
166 16 10
167 -3 -33
168 -3 -33
169 -3 -33
170 -3 -33
171 -3 -33
172 -3 -33
173 -24 13
174 -24 13
175 -24 13
176 -8 34
177 -8 34
178 -8 34
179 -8 34
180 24 -28
181 24 -28
182 24 -28
183 24 -28
184 24 -28
185 44 41
186 44 41
DEMAND_SECTION
1 0
2 32
3 32
4 16
5 8
6 2
7 2
8 2
9 32
10 32
11 8
12 2
13 16
14 8
15 32
16 16
17 2
18 2
19 2
20 16
21 8
22 32
23 16
24 2
25 2
26 32
27 16
28 8
29 2
30 32
31 8
32 2
33 2
34 32
35 16
36 8
37 2
38 2
39 2
40 1
41 32
42 32
43 32
44 2
45 2
46 2
47 32
48 2
49 1
50 16
51 8
52 1
53 32
54 8
55 1
56 32
57 32
58 8
59 32
60 32
61 2
62 2
63 2
64 16
65 8
66 1
67 32
68 16
69 2
70 2
71 2
72 1
73 32
74 32
75 2
76 32
77 8
78 2
79 2
80 2
81 32
82 16
83 8
84 2
85 2
86 32
87 32
88 16
89 16
90 8
91 2
92 2
93 16
94 2
95 2
96 2
97 32
98 8
99 2
100 2
101 32
102 16
103 1
104 32
105 8
106 1
107 32
108 16
109 1
110 32
111 16
112 8
113 2
114 2
115 32
116 2
117 2
118 2
119 32
120 16
121 2
122 2
123 32
124 32
125 8
126 16
127 8
128 2
129 2
130 2
131 16
132 8
133 2
134 2
135 32
136 16
137 8
138 2
139 1
140 16
141 8
142 32
143 8
144 2
145 32
146 32
147 8
148 32
149 8
150 2
151 2
152 2
153 16
154 8
155 2
156 32
157 16
158 32
159 16
160 8
161 2
162 2
163 2
164 32
165 32
166 8
167 32
168 32
169 8
170 2
171 2
172 1
173 32
174 32
175 16
176 32
177 32
178 2
179 1
180 16
181 8
182 2
183 2
184 1
185 32
186 32
DEPOT_SECTION
1
-1
EOF