SDVRP instances/custom_instances/p01_28_split0.sol
185 -10 8 11 9 174 172 173 -20 19 21 22 23 24 164 165 163 -27 26 5 6 7 4 3 2 168 167 166 169 -28 25 140 139 62 59 61 58 60 88 91 89 90 -35 38 34 39 37 36 33 29 31 30 32 150 147 151 148 149 -48 47 46 152 153 154 41 40 52 -51 49 50 12 13 127 128 129 126 125 85 86 87 -54 53 106 108 107 115 114 117 116 101 100 102 -64 63 65 55 56 57 182 180 181 179 183 94 95 93 92 -72 74 73 175 176 178 177 -77 79 75 76 78 67 71 69 70 68 66 157 161 158 -80 82 83 84 81 104 105 103 143 141 142 -96 97 42 44 43 45 1 155 156 -99 98 113 112 110 111 14 18 16 17 15 146 145 144 170 -120 121 118 119 109 184 185 159 160 162 -122 124 123 131 132 130 133 135 134 136 137 138 171 0 





OBJ=
1595.771
BEST_KNOWN=
0.000